p cnf 27 40
5 17 18 0
-1 -2 -3 -4 -5 -6 -7 -8 -9 -10 -11 -12 -13 -14 -15 -16 -17 -18 -19 -20 -21 -22 -23 -24 -25 -26 -27 0
-8 -22 -27 0
-15 -12 6 0
3 18 -25 0
-6 4 -3 0
-23 9 -25 0
4 20 5 0
-21 22 -3 0
26 11 4 0
-3 25 -27 0
25 -23 -19 0
-15 9 3 0
22 -23 -3 0
9 -7 -5 0
-2 -9 15 0
9 -25 23 0
-10 23 -6 0
12 17 -13 0
-17 -20 16 0
-9 20 18 0
13 -18 20 0
-24 -1 -5 0
-9 1 -23 0
15 25 -5 0
21 -5 -8 0
-14 -23 -7 0
-15 16 -1 0
-5 -25 11 0
-23 11 -7 0
-22 2 18 0
1 2 3 4 5 6 7 8 9 10 11 12 13 14 15 16 17 18 19 20 21 22 23 24 25 26 27 0
8 -8 -18 0
2 -26 26 0
-17 -27 -16 0
-1 17 6 0
27 22 18 0
-17 -19 -16 0
-2 13 9 0
-14 -19 -15 0
